p cep 184 4953
1 3
1 6
1 9
1 16
1 24
1 33
1 39
1 50
1 51
1 56
1 59
1 60
1 61
1 62
1 69
1 70
1 81
1 85
1 90
1 94
1 96
1 104
1 105
1 124
1 135
1 140
1 141
1 146
1 151
1 152
1 155
1 156
1 157
1 165
1 168
2 6
2 13
2 18
2 23
2 26
2 27
2 28
2 39
2 42
2 49
2 53
2 64
2 69
2 70
2 71
2 75
2 79
2 80
2 81
2 82
2 84
2 85
2 91
2 92
2 99
2 100
2 101
2 102
2 104
2 108
2 115
2 117
2 118
2 119
2 121
2 126
2 129
2 130
2 133
2 135
2 137
2 139
2 142
2 143
2 146
2 149
2 150
2 151
2 152
2 153
2 154
2 158
2 166
2 170
2 171
2 172
2 173
2 174
3 4
3 6
3 8
3 9
3 10
3 13
3 14
3 17
3 18
3 19
3 21
3 22
3 23
3 24
3 25
3 26
3 29
3 34
3 35
3 36
3 37
3 38
3 39
3 48
3 50
3 51
3 53
3 55
3 59
3 60
3 62
3 64
3 69
3 70
3 71
3 72
3 77
3 80
3 81
3 82
3 83
3 84
3 85
3 86
3 89
3 90
3 91
3 92
3 95
3 96
3 99
3 102
3 104
3 105
3 108
3 117
3 118
3 119
3 120
3 121
3 123
3 127
3 129
3 132
3 135
3 139
3 140
3 141
3 145
3 146
3 148
3 149
3 150
3 151
3 152
3 154
3 155
3 157
3 158
3 160
3 162
3 163
3 166
3 169
3 173
3 176
3 179
3 184
4 5
4 6
4 10
4 11
4 12
4 18
4 21
4 22
4 23
4 25
4 26
4 27
4 31
4 35
4 36
4 39
4 44
4 45
4 52
4 53
4 55
4 58
4 59
4 62
4 66
4 68
4 69
4 70
4 71
4 72
4 74
4 80
4 81
4 84
4 86
4 87
4 89
4 90
4 91
4 93
4 95
4 98
4 104
4 107
4 108
4 109
4 110
4 112
4 114
4 116
4 118
4 121
4 124
4 125
4 132
4 136
4 140
4 145
4 146
4 147
4 148
4 149
4 150
4 151
4 152
4 154
4 155
4 157
4 161
4 162
4 163
4 166
4 169
4 175
4 176
4 179
4 181
4 184
5 6
5 10
5 14
5 19
5 21
5 25
5 29
5 38
5 70
5 80
5 81
5 83
5 84
5 89
5 95
5 104
5 132
5 135
5 146
5 151
5 157
5 160
5 169
6 9
6 10
6 11
6 13
6 14
6 15
6 17
6 18
6 19
6 21
6 22
6 23
6 25
6 26
6 27
6 28
6 29
6 30
6 31
6 33
6 34
6 35
6 36
6 37
6 38
6 39
6 41
6 44
6 45
6 48
6 49
6 51
6 53
6 55
6 56
6 57
6 59
6 60
6 61
6 62
6 64
6 68
6 69
6 70
6 71
6 72
6 73
6 74
6 75
6 77
6 80
6 81
6 82
6 83
6 84
6 85
6 86
6 89
6 90
6 91
6 92
6 93
6 95
6 96
6 98
6 99
6 100
6 102
6 104
6 105
6 108
6 109
6 110
6 113
6 116
6 117
6 118
6 119
6 120
6 121
6 122
6 123
6 124
6 125
6 126
6 128
6 129
6 130
6 132
6 133
6 135
6 136
6 139
6 140
6 142
6 143
6 145
6 146
6 147
6 148
6 149
6 150
6 151
6 152
6 154
6 155
6 156
6 157
6 158
6 160
6 162
6 163
6 166
6 169
6 172
6 173
6 174
6 175
6 176
6 184
7 12
7 32
7 46
7 54
7 78
7 88
7 107
7 112
7 144
7 164
7 182
8 13
8 18
8 19
8 26
8 29
8 35
8 39
8 48
8 49
8 53
8 61
8 64
8 69
8 71
8 82
8 83
8 85
8 99
8 104
8 118
8 124
8 129
8 130
8 135
8 137
8 140
8 143
8 147
8 150
8 154
8 157
8 158
8 166
8 173
9 10
9 16
9 22
9 23
9 24
9 33
9 35
9 39
9 50
9 51
9 53
9 56
9 59
9 60
9 61
9 62
9 69
9 70
9 81
9 84
9 90
9 94
9 96
9 104
9 105
9 135
9 140
9 146
9 151
9 152
9 154
9 155
9 156
9 157
9 165
9 166
9 168
10 14
10 16
10 19
10 21
10 22
10 23
10 24
10 25
10 26
10 29
10 31
10 35
10 37
10 38
10 50
10 51
10 53
10 56
10 58
10 59
10 61
10 62
10 70
10 77
10 80
10 83
10 84
10 89
10 90
10 91
10 94
10 95
10 104
10 108
10 123
10 124
10 125
10 132
10 135
10 140
10 141
10 146
10 150
10 151
10 152
10 154
10 155
10 157
10 160
10 162
10 168
10 169
10 175
10 176
10 184
11 12
11 17
11 18
11 25
11 30
11 31
11 34
11 44
11 45
11 52
11 55
11 59
11 66
11 68
11 73
11 74
11 84
11 86
11 87
11 89
11 93
11 95
11 97
11 107
11 108
11 109
11 110
11 112
11 113
11 114
11 116
11 122
11 124
11 125
11 132
11 138
11 145
11 146
11 147
11 148
11 149
11 155
11 161
11 166
11 167
11 169
11 177
11 180
11 181
12 25
12 30
12 31
12 32
12 40
12 44
12 45
12 46
12 52
12 54
12 58
12 67
12 68
12 78
12 80
12 87
12 88
12 95
12 97
12 107
12 108
12 110
12 111
12 112
12 113
12 114
12 116
12 138
12 144
12 161
12 164
12 167
12 169
12 182
13 18
13 23
13 26
13 27
13 28
13 34
13 39
13 42
13 48
13 49
13 53
13 57
13 59
13 63
13 64
13 69
13 70
13 71
13 77
13 79
13 84
13 91
13 92
13 99
13 102
13 115
13 117
13 118
13 119
13 121
13 126
13 129
13 130
13 133
13 135
13 137
13 139
13 142
13 143
13 146
13 149
13 150
13 151
13 152
13 153
13 154
13 155
13 158
13 162
13 166
13 170
13 171
13 172
13 173
13 174
14 15
14 17
14 19
14 21
14 23
14 26
14 29
14 31
14 34
14 35
14 36
14 37
14 38
14 39
14 48
14 53
14 55
14 59
14 69
14 70
14 71
14 72
14 74
14 75
14 77
14 81
14 83
14 84
14 90
14 91
14 100
14 104
14 110
14 118
14 121
14 123
14 127
14 138
14 140
14 141
14 146
14 148
14 149
14 150
14 151
14 152
14 154
14 155
14 157
14 158
14 160
14 161
14 162
14 163
14 166
14 172
14 173
14 179
14 184
15 17
15 23
15 25
15 26
15 30
15 34
15 35
15 36
15 37
15 38
15 45
15 47
15 48
15 55
15 57
15 69
15 70
15 71
15 72
15 76
15 77
15 80
15 82
15 85
15 90
15 95
15 96
15 102
15 104
15 108
15 119
15 121
15 127
15 129
15 132
15 140
15 141
15 146
15 149
15 152
15 156
15 159
15 160
15 162
15 163
15 166
15 169
15 177
15 179
15 184
16 24
16 33
16 50
16 51
16 56
16 60
16 61
16 90
16 94
16 96
16 105
16 152
16 154
16 156
16 165
16 168
17 18
17 23
17 25
17 26
17 29
17 30
17 31
17 34
17 35
17 36
17 37
17 38
17 39
17 48
17 53
17 57
17 59
17 62
17 69
17 70
17 71
17 72
17 77
17 80
17 82
17 84
17 87
17 89
17 91
17 95
17 102
17 104
17 108
17 110
17 113
17 114
17 116
17 117
17 119
17 120
17 121
17 127
17 128
17 129
17 132
17 138
17 139
17 140
17 141
17 143
17 145
17 146
17 149
17 151
17 155
17 157
17 158
17 160
17 161
17 162
17 163
17 166
17 169
17 175
17 176
17 177
17 179
17 184
18 21
18 22
18 25
18 26
18 28
18 29
18 30
18 34
18 35
18 36
18 39
18 48
18 57
18 59
18 60
18 61
18 62
18 64
18 69
18 70
18 71
18 72
18 75
18 80
18 82
18 84
18 85
18 89
18 91
18 92
18 95
18 98
18 99
18 100
18 102
18 104
18 108
18 113
18 115
18 117
18 118
18 119
18 120
18 121
18 127
18 129
18 130
18 132
18 135
18 140
18 142
18 143
18 146
18 148
18 149
18 150
18 151
18 152
18 155
18 157
18 158
18 159
18 162
18 163
18 166
18 169
18 175
18 176
18 179
19 21
19 23
19 25
19 26
19 27
19 29
19 34
19 35
19 37
19 38
19 39
19 48
19 50
19 53
19 55
19 61
19 70
19 71
19 72
19 77
19 81
19 83
19 89
19 90
19 91
19 94
19 95
19 104
19 108
19 109
19 121
19 123
19 129
19 132
19 140
19 141
19 145
19 149
19 150
19 151
19 152
19 154
19 157
19 158
19 160
19 162
19 165
19 166
19 169
19 184
20 30
20 31
20 41
20 44
20 45
20 53
20 65
20 66
20 68
20 74
20 86
20 87
20 97
20 106
20 107
20 109
20 110
20 113
20 114
20 116
20 124
20 125
20 138
20 145
20 148
20 177
20 178
21 23
21 29
21 35
21 37
21 38
21 39
21 48
21 59
21 61
21 62
21 70
21 72
21 77
21 81
21 83
21 84
21 91
21 93
21 102
21 104
21 108
21 121
21 129
21 131
21 135
21 141
21 145
21 146
21 150
21 151
21 152
21 155
21 160
21 162
21 176
21 184
22 25
22 35
22 51
22 55
22 56
22 59
22 61
22 62
22 70
22 80
22 84
22 89
22 93
22 95
22 96
22 98
22 108
22 125
22 132
22 146
22 150
22 151
22 152
22 155
22 156
22 169
22 176
22 184
23 25
23 26
23 29
23 34
23 35
23 36
23 37
23 38
23 39
23 48
23 53
23 55
23 56
23 59
23 62
23 64
23 69
23 70
23 71
23 72
23 77
23 80
23 81
23 83
23 84
23 85
23 87
23 89
23 90
23 91
23 95
23 98
23 104
23 108
23 110
23 115
23 118
23 121
23 123
23 127
23 132
23 133
23 135
23 138
23 139
23 140
23 141
23 143
23 146
23 149
23 150
23 151
23 152
23 154
23 155
23 157
23 158
23 160
23 162
23 163
23 165
23 166
23 169
23 172
23 173
23 174
23 179
23 184
24 33
24 50
24 51
24 56
24 60
24 61
24 62
24 69
24 70
24 84
24 94
24 96
24 104
24 105
24 123
24 124
24 135
24 140
24 150
24 152
24 154
24 156
24 157
24 165
24 166
24 168
25 26
25 29
25 30
25 31
25 34
25 35
25 39
25 44
25 45
25 48
25 53
25 55
25 59
25 60
25 62
25 64
25 65
25 66
25 68
25 69
25 70
25 72
25 73
25 74
25 80
25 81
25 82
25 83
25 84
25 86
25 87
25 89
25 91
25 95
25 98
25 99
25 104
25 106
25 107
25 108
25 109
25 110
25 112
25 114
25 116
25 119
25 121
25 122
25 125
25 132
25 135
25 138
25 140
25 145
25 146
25 147
25 148
25 149
25 150
25 151
25 152
25 154
25 155
25 157
25 162
25 163
25 166
25 167
25 169
25 173
25 174
25 175
25 176
25 179
25 180
25 184
26 28
26 29
26 31
26 34
26 35
26 36
26 37
26 38
26 39
26 44
26 45
26 48
26 50
26 51
26 53
26 55
26 56
26 57
26 59
26 60
26 61
26 62
26 64
26 68
26 69
26 70
26 71
26 72
26 75
26 77
26 80
26 81
26 82
26 83
26 84
26 85
26 86
26 87
26 89
26 90
26 91
26 92
26 95
26 96
26 98
26 99
26 100
26 102
26 104
26 105
26 108
26 109
26 110
26 115
26 117
26 118
26 119
26 120
26 121
26 123
26 124
26 127
26 128
26 129
26 132
26 135
26 139
26 140
26 141
26 143
26 145
26 146
26 147
26 148
26 149
26 150
26 151
26 152
26 154
26 155
26 157
26 158
26 159
26 160
26 161
26 162
26 163
26 166
26 169
26 172
26 173
26 175
26 176
26 177
26 179
26 184
27 28
27 29
27 42
27 48
27 49
27 64
27 69
27 71
27 79
27 83
27 99
27 101
27 102
27 117
27 120
27 126
27 129
27 133
27 135
27 139
27 142
27 143
27 150
27 153
27 158
27 166
27 170
27 171
27 172
27 173
27 174
28 35
28 39
28 42
28 48
28 49
28 51
28 53
28 57
28 59
28 63
28 64
28 69
28 71
28 79
28 81
28 82
28 92
28 99
28 100
28 102
28 115
28 117
28 118
28 119
28 123
28 126
28 127
28 128
28 129
28 130
28 133
28 135
28 139
28 140
28 142
28 143
28 146
28 149
28 150
28 152
28 153
28 154
28 155
28 158
28 159
28 166
28 170
28 171
28 172
28 173
28 174
29 34
29 35
29 37
29 38
29 48
29 50
29 53
29 61
29 70
29 71
29 72
29 77
29 81
29 82
29 83
29 89
29 90
29 91
29 94
29 95
29 104
29 105
29 108
29 121
29 123
29 129
29 132
29 140
29 141
29 149
29 150
29 151
29 152
29 154
29 157
29 160
29 162
29 166
29 169
29 184
30 31
30 34
30 36
30 41
30 44
30 45
30 52
30 54
30 55
30 58
30 59
30 67
30 68
30 70
30 72
30 73
30 74
30 80
30 84
30 86
30 87
30 95
30 97
30 107
30 108
30 109
30 110
30 112
30 113
30 114
30 116
30 122
30 125
30 132
30 138
30 145
30 146
30 147
30 148
30 149
30 155
30 161
30 163
30 166
30 167
30 169
30 177
30 179
30 180
30 181
31 36
31 37
31 38
31 41
31 44
31 45
31 52
31 55
31 58
31 62
31 68
31 70
31 73
31 74
31 77
31 80
31 86
31 87
31 89
31 91
31 95
31 107
31 108
31 109
31 110
31 112
31 113
31 114
31 116
31 122
31 124
31 125
31 132
31 135
31 138
31 145
31 146
31 147
31 148
31 151
31 160
31 161
31 162
31 167
31 169
31 176
31 177
31 181
31 184
32 46
32 54
32 67
32 78
32 88
32 107
32 110
32 111
32 112
32 144
32 148
32 161
32 164
32 182
33 35
33 50
33 51
33 56
33 60
33 61
33 70
33 77
33 81
33 94
33 96
33 105
33 146
33 151
33 152
33 154
33 156
33 165
33 168
34 35
34 36
34 37
34 38
34 39
34 48
34 62
34 69
34 70
34 71
34 72
34 77
34 80
34 82
34 83
34 84
34 87
34 89
34 91
34 95
34 98
34 102
34 104
34 108
34 113
34 114
34 116
34 117
34 119
34 120
34 121
34 128
34 129
34 132
34 139
34 140
34 141
34 143
34 145
34 146
34 149
34 151
34 152
34 157
34 160
34 161
34 162
34 163
34 166
34 169
34 176
34 177
34 179
34 184
35 36
35 37
35 38
35 39
35 44
35 47
35 48
35 49
35 50
35 53
35 55
35 56
35 57
35 59
35 60
35 61
35 62
35 64
35 68
35 69
35 70
35 71
35 72
35 76
35 77
35 80
35 81
35 82
35 83
35 84
35 85
35 86
35 89
35 90
35 91
35 92
35 94
35 95
35 96
35 98
35 100
35 102
35 104
35 105
35 108
35 109
35 112
35 113
35 115
35 117
35 118
35 119
35 120
35 121
35 123
35 125
35 127
35 129
35 131
35 132
35 135
35 136
35 140
35 141
35 142
35 143
35 145
35 146
35 147
35 149
35 150
35 151
35 152
35 154
35 155
35 157
35 158
35 159
35 160
35 162
35 163
35 166
35 169
35 173
35 174
35 176
35 177
35 179
35 184
36 37
36 38
36 47
36 48
36 53
36 57
36 60
36 69
36 70
36 71
36 72
36 76
36 77
36 80
36 82
36 85
36 90
36 91
36 96
36 102
36 104
36 108
36 113
36 116
36 119
36 120
36 121
36 127
36 129
36 135
36 140
36 141
36 146
36 149
36 150
36 152
36 156
36 157
36 159
36 160
36 162
36 163
36 165
36 166
36 179
37 38
37 39
37 42
37 48
37 53
37 55
37 69
37 70
37 71
37 72
37 74
37 75
37 77
37 81
37 83
37 84
37 90
37 91
37 100
37 104
37 110
37 121
37 122
37 123
37 127
37 138
37 140
37 141
37 145
37 146
37 148
37 149
37 150
37 151
37 152
37 154
37 157
37 158
37 160
37 161
37 162
37 163
37 166
37 173
37 179
37 184
38 39
38 48
38 53
38 55
38 59
38 69
38 70
38 71
38 72
38 74
38 75
38 77
38 81
38 83
38 84
38 90
38 91
38 100
38 104
38 110
38 118
38 121
38 123
38 127
38 138
38 140
38 141
38 146
38 148
38 149
38 150
38 151
38 152
38 154
38 155
38 157
38 158
38 160
38 161
38 162
38 163
38 166
38 172
38 173
38 179
38 184
39 42
39 48
39 49
39 50
39 53
39 56
39 57
39 59
39 60
39 63
39 64
39 69
39 70
39 71
39 72
39 75
39 77
39 79
39 81
39 82
39 83
39 84
39 85
39 89
39 90
39 91
39 92
39 95
39 96
39 98
39 99
39 100
39 102
39 104
39 108
39 115
39 117
39 118
39 119
39 120
39 121
39 123
39 126
39 127
39 128
39 129
39 132
39 135
39 137
39 139
39 140
39 141
39 142
39 143
39 146
39 149
39 150
39 151
39 152
39 154
39 155
39 157
39 158
39 159
39 160
39 162
39 163
39 166
39 169
39 171
39 172
39 173
39 175
39 176
39 179
39 184
40 58
40 66
40 103
40 114
40 125
40 134
40 178
40 183
41 52
41 58
41 66
41 73
41 88
41 97
41 103
41 107
41 110
41 114
41 122
41 125
41 145
41 148
41 178
42 49
42 57
42 63
42 64
42 71
42 79
42 99
42 101
42 115
42 118
42 119
42 120
42 126
42 128
42 130
42 133
42 137
42 139
42 142
42 143
42 149
42 150
42 152
42 153
42 154
42 159
42 166
42 170
42 171
42 173
42 174
43 102
43 117
43 120
43 128
43 129
43 139
44 45
44 52
44 53
44 55
44 59
44 62
44 68
44 73
44 74
44 77
44 80
44 82
44 84
44 86
44 87
44 89
44 93
44 95
44 97
44 98
44 102
44 107
44 108
44 109
44 110
44 112
44 113
44 114
44 116
44 122
44 124
44 125
44 128
44 132
44 138
44 140
44 145
44 146
44 147
44 148
44 155
44 157
44 161
44 163
44 164
44 166
44 167
44 169
44 176
44 177
44 179
44 180
45 48
45 52
45 55
45 59
45 62
45 68
45 69
45 73
45 74
45 80
45 82
45 84
45 86
45 87
45 89
45 93
45 95
45 97
45 107
45 108
45 109
45 110
45 112
45 113
45 114
45 116
45 122
45 124
45 125
45 132
45 138
45 145
45 146
45 147
45 148
45 155
45 161
45 167
45 169
45 176
45 177
45 181
46 54
46 67
46 74
46 78
46 88
46 107
46 110
46 111
46 112
46 138
46 144
46 145
46 148
46 164
46 182
47 76
48 51
48 57
48 59
48 60
48 64
48 65
48 69
48 70
48 71
48 72
48 75
48 80
48 82
48 83
48 84
48 89
48 91
48 92
48 95
48 96
48 99
48 100
48 102
48 104
48 106
48 108
48 117
48 118
48 119
48 120
48 121
48 123
48 128
48 129
48 132
48 135
48 139
48 140
48 143
48 146
48 149
48 150
48 151
48 154
48 155
48 158
48 159
48 160
48 163
48 166
48 169
48 172
48 173
48 174
48 175
48 176
48 179
48 184
49 53
49 57
49 61
49 63
49 64
49 69
49 71
49 79
49 81
49 82
49 92
49 99
49 101
49 115
49 117
49 118
49 119
49 126
49 127
49 130
49 133
49 135
49 139
49 142
49 143
49 150
49 154
49 166
49 170
49 171
49 172
49 173
49 174
50 51
50 56
50 59
50 60
50 61
50 62
50 69
50 70
50 83
50 90
50 91
50 94
50 96
50 104
50 105
50 123
50 140
50 151
50 152
50 154
50 155
50 156
50 165
50 166
50 168
50 173
51 53
51 56
51 59
51 60
51 61
51 62
51 69
51 70
51 81
51 90
51 91
51 94
51 96
51 98
51 104
51 105
51 108
51 124
51 135
51 140
51 146
51 151
51 152
51 154
51 155
51 156
51 157
51 165
51 166
51 168
51 175
51 176
52 55
52 58
52 68
52 73
52 74
52 77
52 84
52 86
52 87
52 89
52 107
52 108
52 109
52 110
52 112
52 113
52 114
52 116
52 122
52 125
52 138
52 145
52 146
52 148
52 161
52 163
52 167
52 180
53 56
53 57
53 59
53 62
53 63
53 64
53 68
53 69
53 70
53 71
53 72
53 75
53 77
53 80
53 81
53 82
53 83
53 84
53 89
53 90
53 91
53 92
53 93
53 95
53 96
53 98
53 99
53 100
53 102
53 104
53 108
53 109
53 115
53 117
53 118
53 119
53 121
53 123
53 124
53 126
53 127
53 128
53 129
53 130
53 132
53 133
53 135
53 137
53 140
53 141
53 142
53 143
53 146
53 149
53 150
53 151
53 152
53 154
53 155
53 157
53 158
53 160
53 162
53 163
53 166
53 169
53 171
53 172
53 173
53 174
53 175
53 176
53 179
53 184
54 67
54 88
54 103
54 111
54 112
54 116
54 125
54 144
54 145
54 164
55 59
55 62
55 66
55 67
55 68
55 70
55 73
55 74
55 77
55 80
55 83
55 84
55 86
55 87
55 89
55 90
55 91
55 93
55 95
55 97
55 98
55 107
55 108
55 109
55 110
55 113
55 114
55 116
55 122
55 124
55 125
55 132
55 138
55 140
55 145
55 146
55 147
55 148
55 149
55 150
55 151
55 152
55 155
55 160
55 161
55 162
55 163
55 166
55 167
55 169
55 175
55 176
55 177
55 179
55 180
55 181
56 59
56 60
56 61
56 62
56 69
56 70
56 71
56 81
56 84
56 89
56 94
56 96
56 105
56 108
56 121
56 124
56 132
56 135
56 140
56 146
56 149
56 151
56 152
56 154
56 155
56 156
56 162
56 165
56 166
56 168
56 175
56 176
57 59
57 64
57 69
57 70
57 71
57 75
57 79
57 81
57 82
57 85
57 90
57 91
57 92
57 99
57 100
57 102
57 117
57 118
57 119
57 121
57 126
57 127
57 129
57 130
57 135
57 137
57 142
57 143
57 146
57 149
57 150
57 152
57 154
57 155
57 158
57 159
57 162
57 163
57 166
57 171
57 172
57 179
58 66
58 86
58 87
58 93
58 97
58 103
58 107
58 110
58 112
58 113
58 114
58 116
58 122
58 125
58 144
58 145
58 147
58 148
58 161
58 164
58 177
58 181
59 60
59 61
59 62
59 64
59 68
59 69
59 70
59 71
59 72
59 73
59 74
59 80
59 81
59 82
59 84
59 86
59 89
59 91
59 92
59 93
59 95
59 96
59 98
59 99
59 104
59 108
59 109
59 110
59 116
59 118
59 119
59 120
59 121
59 122
59 124
59 125
59 128
59 132
59 135
59 136
59 138
59 140
59 142
59 143
59 145
59 146
59 147
59 148
59 149
59 150
59 151
59 152
59 154
59 155
59 157
59 158
59 159
59 160
59 161
59 163
59 165
59 166
59 169
59 174
59 175
59 176
59 177
59 179
59 184
60 61
60 62
60 69
60 70
60 71
60 81
60 84
60 90
60 91
60 92
60 94
60 95
60 96
60 98
60 102
60 104
60 105
60 108
60 119
60 121
60 124
60 127
60 132
60 135
60 146
60 149
60 150
60 151
60 152
60 154
60 155
60 156
60 157
60 158
60 165
60 168
60 169
60 175
60 176
61 62
61 69
61 70
61 81
61 83
61 84
61 89
61 90
61 94
61 96
61 104
61 105
61 117
61 123
61 124
61 135
61 138
61 140
61 146
61 149
61 150
61 151
61 152
61 154
61 155
61 156
61 165
61 166
61 168
61 172
61 173
62 65
62 68
62 70
62 71
62 73
62 74
62 77
62 80
62 84
62 86
62 89
62 90
62 91
62 93
62 94
62 95
62 96
62 98
62 104
62 106
62 107
62 108
62 109
62 110
62 113
62 116
62 121
62 122
62 123
62 124
62 125
62 132
62 135
62 136
62 140
62 141
62 145
62 146
62 147
62 148
62 149
62 150
62 151
62 152
62 154
62 155
62 157
62 166
62 169
62 176
62 177
63 64
63 69
63 79
63 99
63 101
63 115
63 119
63 126
63 127
63 130
63 133
63 135
63 137
63 139
63 142
63 149
63 152
63 153
63 159
63 166
63 170
63 171
63 172
63 173
63 174
63 175
64 69
64 70
64 71
64 75
64 79
64 80
64 81
64 82
64 84
64 85
64 89
64 91
64 92
64 95
64 99
64 100
64 102
64 115
64 117
64 118
64 119
64 120
64 121
64 126
64 127
64 128
64 129
64 130
64 132
64 133
64 135
64 137
64 139
64 140
64 142
64 143
64 146
64 149
64 150
64 152
64 153
64 154
64 155
64 157
64 158
64 159
64 163
64 166
64 169
64 170
64 171
64 172
64 173
64 174
64 179
65 93
65 95
65 106
65 124
65 132
65 136
65 169
66 73
66 74
66 87
66 95
66 97
66 106
66 107
66 113
66 114
66 116
66 122
66 125
66 132
66 138
66 145
66 161
66 164
66 169
66 177
66 178
67 86
67 111
67 112
67 116
67 125
67 167
68 73
68 74
68 77
68 80
68 82
68 84
68 86
68 87
68 89
68 93
68 95
68 97
68 98
68 102
68 107
68 108
68 109
68 110
68 112
68 113
68 114
68 116
68 122
68 124
68 125
68 128
68 132
68 138
68 140
68 145
68 146
68 147
68 148
68 155
68 157
68 161
68 163
68 164
68 166
68 167
68 169
68 176
68 177
68 179
68 180
69 70
69 71
69 72
69 74
69 75
69 77
69 80
69 81
69 82
69 84
69 85
69 86
69 89
69 90
69 91
69 92
69 95
69 96
69 99
69 100
69 102
69 104
69 108
69 117
69 118
69 119
69 120
69 121
69 123
69 124
69 127
69 128
69 129
69 130
69 132
69 135
69 137
69 139
69 140
69 141
69 142
69 143
69 146
69 149
69 150
69 151
69 152
69 154
69 155
69 157
69 158
69 159
69 160
69 162
69 163
69 165
69 166
69 169
69 171
69 173
69 174
69 175
69 176
69 179
69 184
70 71
70 72
70 77
70 80
70 81
70 82
70 83
70 84
70 85
70 89
70 90
70 91
70 92
70 93
70 94
70 95
70 96
70 98
70 99
70 100
70 102
70 104
70 108
70 113
70 116
70 117
70 118
70 119
70 121
70 123
70 124
70 125
70 127
70 129
70 132
70 135
70 140
70 141
70 142
70 143
70 145
70 146
70 149
70 150
70 151
70 152
70 154
70 155
70 156
70 157
70 158
70 159
70 160
70 162
70 163
70 165
70 166
70 169
70 174
70 176
70 177
70 179
70 184
71 72
71 75
71 77
71 79
71 80
71 81
71 82
71 83
71 84
71 85
71 89
71 90
71 91
71 92
71 96
71 98
71 99
71 100
71 102
71 104
71 108
71 115
71 117
71 118
71 119
71 120
71 121
71 123
71 126
71 127
71 128
71 129
71 130
71 132
71 133
71 135
71 136
71 137
71 139
71 140
71 141
71 142
71 143
71 146
71 149
71 150
71 151
71 152
71 154
71 155
71 157
71 158
71 159
71 160
71 162
71 163
71 166
71 170
71 171
71 172
71 173
71 174
71 175
71 176
71 179
71 184
72 73
72 77
72 80
72 82
72 83
72 84
72 89
72 90
72 91
72 92
72 95
72 102
72 104
72 108
72 121
72 122
72 123
72 127
72 132
72 135
72 139
72 140
72 141
72 146
72 150
72 151
72 152
72 155
72 157
72 160
72 161
72 162
72 163
72 166
72 169
72 179
72 184
73 74
73 84
73 86
73 87
73 91
73 93
73 95
73 106
73 107
73 109
73 110
73 113
73 114
73 116
73 121
73 122
73 124
73 125
73 132
73 138
73 145
73 146
73 147
73 148
73 150
73 151
73 155
73 161
73 162
73 163
73 166
73 167
73 169
73 175
73 177
73 179
73 180
73 181
74 75
74 80
74 84
74 86
74 87
74 89
74 95
74 97
74 107
74 108
74 109
74 110
74 111
74 112
74 113
74 116
74 122
74 125
74 132
74 135
74 138
74 145
74 146
74 147
74 148
74 149
74 150
74 155
74 160
74 161
74 163
74 166
74 167
74 169
74 176
74 177
74 179
74 180
74 181
75 91
75 92
75 99
75 100
75 102
75 104
75 118
75 119
75 129
75 135
75 139
75 143
75 149
75 150
75 152
75 158
75 159
75 160
75 163
75 166
75 173
75 179
77 81
77 83
77 84
77 90
77 91
77 94
77 104
77 109
77 121
77 123
77 127
77 140
77 141
77 142
77 146
77 149
77 150
77 151
77 152
77 154
77 157
77 158
77 160
77 162
77 163
77 166
77 173
77 179
77 184
78 88
78 103
78 107
78 144
78 164
78 182
79 81
79 92
79 99
79 101
79 115
79 118
79 119
79 126
79 130
79 133
79 137
79 142
79 143
79 149
79 150
79 152
79 153
79 154
79 159
79 163
79 166
79 170
79 171
79 172
79 173
79 174
79 179
80 81
80 84
80 87
80 89
80 91
80 95
80 98
80 104
80 107
80 108
80 109
80 110
80 112
80 118
80 119
80 121
80 125
80 132
80 135
80 136
80 140
80 145
80 146
80 147
80 148
80 149
80 150
80 151
80 152
80 154
80 155
80 157
80 162
80 163
80 166
80 167
80 169
80 175
80 176
81 82
81 83
81 84
81 85
81 89
81 90
81 91
81 94
81 95
81 96
81 98
81 99
81 102
81 104
81 108
81 118
81 119
81 121
81 123
81 126
81 132
81 133
81 135
81 140
81 141
81 142
81 143
81 146
81 149
81 150
81 151
81 152
81 154
81 155
81 157
81 158
81 160
81 162
81 163
81 166
81 169
81 172
81 173
81 174
81 175
81 176
81 179
81 184
82 85
82 89
82 90
82 91
82 92
82 95
82 99
82 102
82 108
82 109
82 117
82 119
82 121
82 123
82 127
82 129
82 132
82 135
82 140
82 141
82 143
82 146
82 147
82 149
82 150
82 152
82 154
82 155
82 159
82 163
82 166
82 169
82 176
82 177
82 179
83 89
83 90
83 91
83 94
83 95
83 104
83 108
83 109
83 121
83 123
83 129
83 132
83 140
83 141
83 145
83 149
83 150
83 151
83 152
83 154
83 157
83 158
83 160
83 162
83 165
83 166
83 169
83 184
84 86
84 87
84 89
84 91
84 92
84 93
84 95
84 96
84 98
84 102
84 104
84 106
84 107
84 108
84 109
84 113
84 116
84 118
84 119
84 120
84 121
84 122
84 123
84 124
84 125
84 129
84 132
84 135
84 136
84 138
84 140
84 141
84 145
84 146
84 147
84 148
84 149
84 150
84 151
84 152
84 154
84 155
84 157
84 158
84 160
84 162
84 163
84 166
84 169
84 174
84 175
84 176
84 179
84 184
85 90
85 91
85 94
85 99
85 102
85 104
85 108
85 115
85 117
85 121
85 125
85 127
85 129
85 133
85 135
85 139
85 140
85 141
85 146
85 149
85 150
85 151
85 152
85 154
85 157
85 163
85 166
85 172
85 174
85 179
86 87
86 89
86 93
86 95
86 97
86 98
86 107
86 108
86 109
86 110
86 111
86 113
86 114
86 116
86 118
86 122
86 124
86 125
86 132
86 135
86 138
86 140
86 145
86 146
86 147
86 148
86 149
86 151
86 155
86 161
86 163
86 166
86 167
86 169
86 175
86 176
86 177
86 179
86 180
87 89
87 95
87 97
87 107
87 108
87 109
87 110
87 112
87 113
87 114
87 116
87 122
87 125
87 132
87 134
87 138
87 140
87 145
87 147
87 148
87 149
87 152
87 161
87 163
87 167
87 169
87 177
87 179
87 181
88 107
88 144
88 164
88 182
89 91
89 95
89 98
89 99
89 104
89 107
89 108
89 109
89 110
89 112
89 116
89 121
89 124
89 125
89 132
89 135
89 136
89 140
89 143
89 145
89 146
89 147
89 148
89 149
89 150
89 151
89 152
89 154
89 155
89 157
89 161
89 162
89 163
89 166
89 167
89 169
89 174
89 175
89 176
89 179
89 184
90 91
90 94
90 102
90 104
90 108
90 117
90 119
90 121
90 123
90 124
90 127
90 129
90 135
90 140
90 141
90 143
90 146
90 150
90 151
90 152
90 154
90 157
90 159
90 160
90 162
90 163
90 166
90 168
90 179
90 184
91 92
91 95
91 98
91 99
91 102
91 104
91 108
91 110
91 117
91 118
91 119
91 120
91 121
91 122
91 123
91 127
91 129
91 132
91 135
91 139
91 140
91 141
91 143
91 145
91 146
91 149
91 150
91 151
91 152
91 154
91 155
91 157
91 158
91 160
91 162
91 163
91 166
91 169
91 172
91 175
91 176
91 179
91 184
92 99
92 100
92 102
92 104
92 117
92 118
92 119
92 120
92 121
92 128
92 129
92 130
92 135
92 139
92 140
92 141
92 142
92 143
92 146
92 149
92 150
92 155
92 158
92 159
92 166
92 171
92 172
92 173
92 174
92 179
93 97
93 106
93 109
93 112
93 116
93 122
93 124
93 132
93 136
93 145
93 146
93 151
93 152
93 155
93 167
93 176
93 180
94 96
94 105
94 135
94 140
94 146
94 149
94 150
94 151
94 152
94 154
94 156
94 165
94 168
94 174
95 98
95 99
95 104
95 106
95 107
95 108
95 109
95 110
95 112
95 114
95 116
95 119
95 121
95 122
95 125
95 132
95 135
95 138
95 140
95 145
95 146
95 147
95 148
95 149
95 150
95 151
95 152
95 154
95 155
95 157
95 162
95 163
95 166
95 167
95 169
95 173
95 174
95 175
95 176
95 179
95 180
95 184
96 105
96 146
96 149
96 150
96 151
96 152
96 154
96 155
96 156
96 165
96 168
96 175
96 176
97 103
97 109
97 110
97 112
97 113
97 114
97 116
97 124
97 125
97 138
97 145
97 147
97 167
97 177
97 178
97 180
98 100
98 108
98 132
98 140
98 146
98 147
98 149
98 150
98 151
98 152
98 155
98 163
98 166
98 169
98 175
98 176
98 179
99 100
99 101
99 102
99 104
99 108
99 115
99 117
99 118
99 119
99 120
99 121
99 126
99 128
99 129
99 130
99 132
99 133
99 135
99 137
99 139
99 140
99 142
99 143
99 146
99 149
99 150
99 152
99 153
99 154
99 155
99 158
99 159
99 163
99 166
99 169
99 170
99 171
99 172
99 173
99 174
99 179
100 102
100 117
100 118
100 119
100 121
100 123
100 129
100 130
100 135
100 139
100 142
100 143
100 146
100 149
100 150
100 158
100 159
100 160
100 163
100 166
100 173
100 179
101 115
101 126
101 149
101 170
101 171
101 172
102 104
102 109
102 117
102 118
102 119
102 120
102 121
102 126
102 127
102 128
102 129
102 133
102 135
102 137
102 139
102 140
102 141
102 142
102 143
102 146
102 147
102 149
102 150
102 151
102 152
102 154
102 157
102 158
102 159
102 166
102 171
102 173
102 174
103 114
103 134
103 178
103 183
104 108
104 118
104 120
104 121
104 123
104 127
104 129
104 132
104 135
104 140
104 141
104 145
104 146
104 149
104 150
104 151
104 152
104 154
104 155
104 156
104 157
104 158
104 160
104 162
104 163
104 166
104 169
104 172
104 176
104 179
104 184
105 123
105 146
105 151
105 152
105 156
105 165
105 168
106 122
106 124
106 132
106 136
106 169
107 108
107 109
107 110
107 112
107 113
107 114
107 116
107 122
107 125
107 132
107 135
107 138
107 144
107 145
107 146
107 147
107 148
107 151
107 161
107 163
107 164
107 167
107 169
107 176
107 177
107 179
107 180
107 181
107 182
108 109
108 110
108 113
108 114
108 116
108 119
108 121
108 124
108 125
108 132
108 135
108 136
108 140
108 145
108 146
108 147
108 148
108 149
108 150
108 151
108 152
108 154
108 155
108 157
108 161
108 162
108 163
108 166
108 169
108 175
108 176
108 179
108 180
108 184
109 110
109 112
109 113
109 114
109 116
109 122
109 124
109 125
109 132
109 138
109 140
109 145
109 146
109 147
109 148
109 155
109 157
109 161
109 163
109 164
109 166
109 167
109 169
109 176
109 177
109 179
109 180
110 112
110 113
110 114
110 116
110 122
110 123
110 125
110 132
110 136
110 138
110 144
110 145
110 146
110 147
110 148
110 155
110 160
110 161
110 162
110 163
110 167
110 169
110 176
110 177
110 179
110 180
110 181
110 182
111 112
111 116
111 125
111 144
111 167
111 180
112 113
112 114
112 116
112 125
112 132
112 138
112 144
112 145
112 164
112 167
112 169
112 177
112 180
112 182
113 114
113 116
113 122
113 125
113 135
113 138
113 145
113 146
113 147
113 148
113 149
113 161
113 162
113 163
113 166
113 167
113 176
113 177
113 179
113 180
113 181
113 182
114 122
114 125
114 145
114 147
114 148
114 169
114 177
114 181
115 118
115 121
115 126
115 127
115 130
115 133
115 135
115 137
115 139
115 142
115 143
115 149
115 152
115 154
115 170
115 171
115 172
115 173
115 174
116 122
116 124
116 125
116 132
116 138
116 140
116 145
116 146
116 147
116 148
116 149
116 155
116 161
116 163
116 167
116 169
116 176
116 177
116 179
116 180
116 181
116 182
117 118
117 119
117 120
117 121
117 126
117 127
117 128
117 129
117 130
117 133
117 135
117 137
117 139
117 140
117 141
117 142
117 143
117 146
117 149
117 150
117 151
117 152
117 158
117 159
117 166
117 171
117 172
117 173
117 174
117 184
118 119
118 120
118 121
118 126
118 128
118 129
118 130
118 135
118 137
118 139
118 140
118 142
118 143
118 146
118 149
118 150
118 152
118 154
118 155
118 158
118 159
118 160
118 163
118 166
118 170
118 171
118 172
118 173
118 174
118 179
119 120
119 121
119 126
119 127
119 128
119 129
119 132
119 133
119 135
119 137
119 140
119 143
119 146
119 149
119 150
119 152
119 154
119 155
119 158
119 159
119 163
119 166
119 169
119 171
119 172
119 173
119 175
119 179
120 128
120 129
120 135
120 139
120 140
120 141
120 143
120 146
120 150
120 152
120 155
120 158
120 159
120 163
120 166
120 176
120 184
121 122
121 123
121 127
121 129
121 132
121 133
121 135
121 139
121 140
121 141
121 143
121 146
121 149
121 150
121 151
121 152
121 154
121 155
121 157
121 158
121 159
121 160
121 162
121 163
121 166
121 169
121 172
121 175
121 179
121 184
122 124
122 125
122 132
122 138
122 145
122 146
122 147
122 148
122 150
122 151
122 155
122 161
122 163
122 166
122 167
122 169
122 175
122 176
122 177
122 180
122 181
123 140
123 141
123 145
123 146
123 149
123 150
123 151
123 152
123 154
123 157
123 158
123 160
123 162
123 163
123 166
123 172
123 173
123 179
123 184
124 125
124 136
124 145
124 146
124 147
124 151
124 155
124 156
124 165
124 166
124 176
124 177
124 180
125 132
125 138
125 145
125 146
125 147
125 148
125 155
125 161
125 163
125 167
125 169
125 176
125 177
125 179
125 180
125 181
126 128
126 129
126 130
126 133
126 135
126 137
126 139
126 142
126 143
126 149
126 150
126 152
126 153
126 166
126 170
126 171
126 172
126 173
126 174
127 129
127 135
127 140
127 141
127 143
127 146
127 149
127 150
127 152
127 157
127 160
127 166
127 175
128 129
128 135
128 139
128 140
128 143
128 146
128 150
128 152
128 155
128 158
128 159
128 166
128 173
128 176
128 184
129 135
129 137
129 139
129 140
129 141
129 142
129 143
129 146
129 147
129 149
129 150
129 151
129 152
129 154
129 157
129 158
129 159
129 166
129 171
129 173
129 174
129 184
130 135
130 137
130 142
130 143
130 149
130 150
130 153
130 154
130 158
130 159
130 166
130 171
130 172
130 173
130 174
131 135
131 146
132 135
132 140
132 145
132 146
132 147
132 148
132 149
132 150
132 151
132 152
132 154
132 155
132 157
132 162
132 166
132 167
132 169
132 173
132 174
132 175
132 176
132 180
132 184
133 139
133 142
133 143
133 149
133 150
133 152
133 153
133 154
133 166
133 171
133 172
133 173
133 174
134 178
134 183
135 137
135 139
135 140
135 141
135 142
135 143
135 145
135 146
135 149
135 150
135 151
135 152
135 154
135 155
135 156
135 157
135 158
135 159
135 162
135 163
135 165
135 166
135 169
135 171
135 172
135 173
135 174
135 176
135 179
135 184
136 148
136 150
136 155
136 176
137 139
137 142
137 143
137 146
137 149
137 150
137 154
137 158
137 159
137 163
137 166
137 171
137 174
138 145
138 146
138 147
138 148
138 149
138 150
138 155
138 160
138 161
138 163
138 166
138 167
138 169
138 177
138 179
138 180
138 181
139 140
139 141
139 142
139 143
139 146
139 149
139 150
139 151
139 158
139 166
139 171
139 173
139 174
139 184
140 141
140 142
140 143
140 146
140 147
140 149
140 150
140 151
140 152
140 154
140 155
140 157
140 158
140 160
140 162
140 163
140 165
140 166
140 169
140 173
140 176
140 179
140 184
141 145
141 146
141 149
141 150
141 151
141 152
141 154
141 157
141 158
141 159
141 160
141 162
141 163
141 166
141 173
141 176
141 179
141 184
142 143
142 146
142 149
142 150
142 151
142 152
142 153
142 154
142 155
142 158
142 159
142 163
142 166
142 170
142 171
142 172
142 173
142 174
143 146
143 149
143 150
143 152
143 154
143 155
143 158
143 159
143 163
143 166
143 171
143 172
143 173
143 174
143 179
143 184
144 164
144 182
145 146
145 147
145 148
145 149
145 151
145 152
145 154
145 155
145 161
145 163
145 167
145 169
145 176
145 177
145 180
145 181
146 147
146 148
146 149
146 150
146 151
146 152
146 154
146 155
146 156
146 157
146 158
146 159
146 160
146 161
146 162
146 163
146 165
146 166
146 169
146 171
146 175
146 176
146 177
146 179
147 148
147 155
147 161
147 163
147 166
147 167
147 169
147 176
147 177
147 179
147 180
148 151
148 155
148 160
148 161
148 167
148 169
148 176
148 177
148 180
148 181
148 182
149 150
149 151
149 152
149 154
149 155
149 157
149 158
149 159
149 160
149 161
149 162
149 163
149 166
149 169
149 170
149 171
149 173
149 174
149 175
149 179
150 151
150 152
150 154
150 155
150 157
150 158
150 159
150 160
150 163
150 166
150 169
150 170
150 171
150 172
150 173
150 174
150 175
150 176
150 179
151 152
151 154
151 155
151 156
151 157
151 158
151 160
151 162
151 163
151 165
151 166
151 169
151 176
151 177
151 181
151 184
152 154
152 155
152 156
152 157
152 158
152 159
152 160
152 162
152 163
152 166
152 168
152 169
152 171
152 172
152 173
152 174
152 175
152 176
152 179
152 184
153 166
153 171
153 173
153 174
154 155
154 157
154 158
154 159
154 160
154 162
154 163
154 165
154 166
154 168
154 169
154 172
154 173
154 174
154 179
154 184
155 157
155 158
155 159
155 160
155 161
155 163
155 165
155 166
155 169
155 174
155 175
155 176
155 177
155 179
155 184
156 165
156 168
157 160
157 161
157 162
157 163
157 166
157 169
157 176
157 179
157 184
158 159
158 160
158 162
158 163
158 166
158 173
158 174
158 176
158 179
158 184
159 163
159 166
159 171
159 172
159 173
159 179
160 161
160 162
160 163
160 166
160 172
160 173
160 179
160 184
161 162
161 164
161 166
161 167
161 177
161 179
161 180
161 181
161 182
162 163
162 166
162 169
162 179
162 184
163 166
163 169
163 173
163 179
164 182
165 168
166 169
166 170
166 171
166 172
166 173
166 174
166 175
166 176
166 179
166 184
167 169
167 177
167 180
167 181
169 173
169 174
169 175
169 176
169 179
169 180
169 184
170 171
170 172
170 174
171 172
171 173
171 174
172 173
172 174
173 174
173 179
175 176
177 180
177 181
178 183
180 181
